
Gurobi 11.0.3 (linux64) logging started Sun Jun  1 10:40:20 2025

Set parameter LogFile to value "/home/yihong/Coding/SFLA+ED/PD_results_bigM100000_thread4/case24_ieee_rts_theta0.25_epsilon0.03_gurobi_seed50000_num_gen38_N_WDR80_load_scaling_factor1_CVAR_T14.txt"
Set parameter TimeLimit to value 3600
Gurobi Optimizer version 11.0.3 build v11.0.3rc0 (linux64 - "Ubuntu 20.04.6 LTS")

CPU model: AMD EPYC 7532 32-Core Processor, instruction set [SSE2|AVX|AVX2]
Thread count: 64 physical cores, 128 logical processors, using up to 4 threads

Optimize a model with 213892 rows, 1145 columns and 10704848 nonzeros
Model fingerprint: 0xad1a0498
Model has 532 quadratic objective terms
Coefficient statistics:
  Matrix range     [4e-06, 8e+01]
  Objective range  [2e+01, 6e+01]
  QObjective range [4e-03, 2e-02]
  Bounds range     [0e+00, 0e+00]
  RHS range        [3e-02, 9e+02]
Presolve removed 57372 rows and 0 columns
Presolve time: 2.42s
Presolved: 156520 rows, 1145 columns, 5515636 nonzeros
Presolved model has 532 quadratic objective terms
Ordering time: 0.88s

Barrier statistics:
 Dense cols : 1089
 Free vars  : 532
 AA' NZ     : 5.881e+06
 Factor NZ  : 7.770e+06 (roughly 130 MB of memory)
 Factor Ops : 1.109e+09 (less than 1 second per iteration)
 Threads    : 4

                  Objective                Residual
Iter       Primal          Dual         Primal    Dual     Compl     Time
   0   3.38994325e+08 -1.76629645e+08  3.75e+04 9.90e+02  9.70e+05   105s
   1   1.82803882e+08  3.99467250e+08  2.46e+04 6.48e+02  6.42e+05   105s
   2   1.78214064e+08 -1.50954038e+09  2.41e+04 6.37e+02  6.36e+05   105s
   3   1.35874778e+08 -1.48855045e+09  1.98e+04 5.23e+02  5.48e+05   105s
   4   9.40299383e+06 -5.14687435e+09  1.97e+03 5.19e+01  9.98e+04   105s
   5   9.03140438e+05 -1.96213960e+09  1.28e+02 3.38e+00  1.60e+04   105s
   6   4.84915534e+05 -6.82793114e+08  3.13e+01 8.25e-01  4.96e+03   105s
   7   4.55833636e+05 -5.51504781e+08  2.46e+01 6.49e-01  3.93e+03   105s
   8   4.15065786e+05 -4.24041343e+08  1.50e+01 3.96e-01  2.96e+03   106s
   9   4.04214006e+05 -3.83947794e+08  1.25e+01 3.30e-01  2.66e+03   106s
  10   3.83887686e+05 -2.52080874e+08  7.83e+00 2.07e-01  1.71e+03   106s
  11   3.77970955e+05 -2.25398087e+08  6.48e+00 1.71e-01  1.54e+03   106s
  12   3.76334916e+05 -2.15465449e+08  6.08e+00 1.60e-01  1.48e+03   106s
  13   3.75367960e+05 -2.06432814e+08  5.83e+00 1.54e-01  1.45e+03   106s
  14   3.73982894e+05 -1.92091981e+08  5.50e+00 1.45e-01  1.37e+03   106s
  15   3.72776621e+05 -1.74601426e+08  5.21e+00 1.37e-01  1.29e+03   106s
  16   3.71858005e+05 -1.62143679e+08  4.98e+00 1.32e-01  1.24e+03   107s
  17   3.67214205e+05 -1.32897980e+08  3.92e+00 1.03e-01  9.84e+02   107s
  18   3.59382680e+05 -8.63811805e+07  2.12e+00 5.59e-02  6.09e+02   107s
  19   3.55826896e+05 -6.63863238e+07  1.30e+00 3.44e-02  4.57e+02   107s
  20   3.53745752e+05 -5.15551707e+07  8.03e-01 2.12e-02  3.49e+02   107s
  21   3.52041141e+05 -3.50660494e+07  4.20e-01 1.11e-02  2.33e+02   107s
  22   3.51560527e+05 -2.93524904e+07  3.09e-01 8.15e-03  1.94e+02   107s
  23   3.50114189e+05 -1.14236291e+07  4.18e-06 9.77e-07  7.47e+01   108s
  24   3.49372284e+05 -3.07928818e+05  2.15e-07 5.36e-08  4.17e+00   108s
  25   3.44138090e+05  1.15697817e+05  2.94e-08 1.52e-08  1.45e+00   108s
  26   3.38127751e+05  1.99001338e+05  1.43e-08 7.42e-09  8.83e-01   108s
  27   3.32105094e+05  2.54504688e+05  5.83e-09 3.02e-09  4.92e-01   108s
  28   3.29171148e+05  2.73390685e+05  3.18e-09 1.64e-09  3.54e-01   108s
  29   3.26920486e+05  2.87553150e+05  1.70e-09 8.79e-10  2.50e-01   109s
  30   3.26594379e+05  2.88960543e+05  1.57e-09 8.12e-10  2.39e-01   109s
  31   3.25478877e+05  2.93878392e+05  8.99e-10 4.66e-10  2.00e-01   109s
  32   3.23834871e+05  3.04004847e+05  5.09e-10 2.63e-10  1.26e-01   109s
  33   3.23268677e+05  3.07039922e+05  3.57e-10 1.85e-10  1.03e-01   110s
  34   3.22741750e+05  3.09809767e+05  2.34e-10 1.21e-10  8.20e-02   110s
  35   3.22176454e+05  3.12703046e+05  1.28e-10 6.63e-11  6.01e-02   110s
  36   3.21680805e+05  3.14935336e+05  5.47e-11 2.83e-11  4.28e-02   110s
  37   3.21508994e+05  3.15762446e+05  4.16e-11 2.15e-11  3.65e-02   110s
  38   3.21066056e+05  3.17781028e+05  1.86e-11 1.68e-11  2.08e-02   111s
  39   3.20884561e+05  3.18617112e+05  1.06e-11 2.18e-11  1.44e-02   111s
  40   3.20766108e+05  3.19130364e+05  5.85e-12 1.05e-10  1.04e-02   111s
  41   3.20731726e+05  3.19277986e+05  3.79e-12 1.32e-11  9.22e-03   111s
  42   3.20621096e+05  3.19734456e+05  9.52e-13 1.45e-11  5.62e-03   111s
  43   3.20564350e+05  3.19962893e+05  4.30e-13 1.41e-11  3.82e-03   112s
  44   3.20498309e+05  3.20222306e+05  1.29e-11 2.22e-09  1.75e-03   112s
  45   3.20484942e+05  3.20278603e+05  2.79e-12 4.83e-10  1.31e-03   112s
  46   3.20457316e+05  3.20385710e+05  1.55e-13 1.08e-10  4.54e-04   112s
  47   3.20452023e+05  3.20406088e+05  6.39e-14 1.10e-11  2.91e-04   112s
  48   3.20448040e+05  3.20421583e+05  2.84e-14 2.47e-11  1.68e-04   113s
  49   3.20443260e+05  3.20439952e+05  2.13e-14 2.39e-11  2.10e-05   113s
  50   3.20442579e+05  3.20442564e+05  6.91e-13 3.76e-10  9.52e-08   113s
  51   3.20442576e+05  3.20442576e+05  1.07e-13 1.75e-10  2.66e-10   113s

Barrier solved model in 51 iterations and 113.25 seconds (130.66 work units)
Optimal objective 3.20442576e+05

